100 8
393 506
640 362
442 159
265 769
172 664
781 303
766 374
296 518
310 371
596 395
368 942
678 66
524 207
199 734
704 811
252 827
321 601
519 728
471 773
851 174
452 421
294 299
446 797
613 729
593 127
379 869
494 374
287 687
199 831
164 609
294 894
469 794
759 358
896 299
491 408
735 322
713 292
251 951
818 765
754 182
754 204
796 775
281 330
898 126
323 667
743 812
474 887
299 256
218 839
712 373
217 755
355 600
309 930
29 590
849 377
339 444
572 725
302 650
784 221
27 547
410 170
939 292
712 250
669 802
39 475
339 942
639 861
442 626
311 408
365 900
95 484
475 798
850 276
450 719
677 805
675 894
467 371
323 956
282 269
447 137
172 717
522 167
248 694
138 811
506 783
187 414
695 392
211 313
430 183
459 416
305 629
808 247
283 662
167 690
836 181
119 589
611 272
587 285
183 656
495 812
